<instance format="XCSP3" type="COP">
  <variables>
    <array id="x" size="[30]"> 0 1 </array>
  </variables>
  <constraints>
    <sum>
      <list> x[] </list>
      <coeffs> 2 21 20 17 18 19 5 16 13 9 14 21 1 22 24 9 8 4 14 3 23 8 20 21 19 13 21 11 25 6 </coeffs>
      <condition> (le,100) </condition>
    </sum>
  </constraints>
  <objectives>
    <maximize type="sum">
      <list> x[] </list>
      <coeffs> 15 4 22 62 39 5 63 29 98 46 96 98 62 100 73 76 40 67 43 58 9 44 83 26 74 86 6 49 29 91 </coeffs>
    </maximize>
  </objectives>
</instance>
